W=8;
H=5;

MAX_TIME=30;
MAX_TRACKS=7;

TARGET=(3,8);

TRAINS=[(1,3,RIGHT),(5,3,RIGHT)];

INIT_POS=[
(1,3,STRAIGHT_RL),
(1,4,STRAIGHT_RL),
(2,5,STRAIGHT_TD),
(3,6,STRAIGHT_RL),
(3,7,STRAIGHT_RL),
(3,8,STRAIGHT_RL),
(4,5,STRAIGHT_TD),
(5,3,STRAIGHT_RL),
(5,4,STRAIGHT_RL),
];
TUNNEL_PAIRS=[];

GATES=[
(2,5,1,false),
(3,7,1,true),
(5,4,1,false),
];
ACTIVATIONS=[
(1,4,1),
(3,6,1),
(4,5,1),
];

DSWITCHES=[];

STATIONS=[];
